S = 4;
start = [|0,0,13,0,0,0,6,14,2,0,0,0,0,0,15,0|
0,0,15,5,10,0,0,0,0,14,0,12,11,8,13,0|
0,7,0,0,0,0,0,1,0,16,0,0,0,2,0,0|
0,0,0,0,7,0,0,15,0,13,0,9,4,0,0,0|
0,0,0,0,16,6,0,0,0,0,8,0,0,0,7,10|
0,5,0,0,0,0,4,0,0,0,0,0,2,0,0,0|
12,6,0,4,0,0,0,2,9,0,0,0,0,0,0,0|
0,0,0,0,0,0,0,13,11,0,3,6,16,0,0,0|
11,16,0,0,0,15,0,0,12,0,0,0,8,10,3,6|
0,0,0,0,1,0,0,12,0,0,15,0,0,7,0,4|
0,14,0,12,13,0,0,16,5,6,10,0,0,0,0,0|
15,0,0,0,0,0,0,0,0,11,0,1,14,0,0,0|
0,1,0,6,0,0,0,7,0,0,0,0,3,14,8,0|
0,3,0,0,0,0,16,11,0,0,0,0,0,0,0,0|
8,13,0,14,0,0,1,0,3,0,0,16,0,0,0,0|
0,0,0,0,3,0,0,8,0,1,6,13,10,0,0,0|];